StudentsNr = 5;
InstructorsNr = 8;
DaysNr = 1;
SlotsPerDay = 8;
AvailabilitySlotsLenght = 2;
RoomNr = 2;
ProgrammNr = 1;
DegreeNr = 2;
RolesNr = 3;
CoursesNr = 5;
InstructorsProgramm = [{1}, {1}, {1}, {1}, {1}, {1}, {1}, {1}];
InstructorRolesPerProgramm = [|{6}, {5, 8}, {4, 5, 6, 7}|];
InstructorsAvailability = [|0, 0, 0, 0, |1, 0, 1, 1, |1, 1, 1, 1, |0, 1, 0, 1, |1, 1, 0, 0, |1, 1, 1, 0, |0, 0, 1, 1, |1, 1, 1, 0|];
StudentsProgramm = [1, 1, 1, 1, 1];
StudentsDegree = [1, 2, 2, 1, 2];
StudentsSupervisorId = [2, 8, 6, 5, 1];
StudentsCourseIds = [{2, 3, 5}, {1, 2, 3, 5}, {1, 3, 4, 5}, {1, 3, 5}, {1, 2, 3, 5}];
StudentsAvailability = [|1, 1, 1, 1, |0, 0, 1, 1, |1, 1, 1, 1, |1, 1, 1, 1, |1, 1, 1, 0|];
TheoryticalMinCard = [1, 1, 0, 0, 1];
CoursesInstructorIds = [{2, 3, 5, 6, 7, 8}, {1}, {2, 4, 6, 7}, {2, 4, 5}, {8}];
RolesDemands = [0, 0, 3];
RolesContinuity = [1, 2];
ExamLen = [1, 2, 2, 1, 2];
LunchTsMinLen = 1;
LunchStarts = [4..5];
SupervisorAvailable = 5;
OptimalLunchLenght = [2, 1];
OptimalStartTs = [1, 2];
OptimalFinishTs = [1, 7];
MinimizeRooms = 400;
RolesSoftContinuity = [|1, 2, 3|2, 1, 2|];
SameDegreeInRoom = 10;
Mergeability = 1;
